(set-info :smt-lib-version 2.6)
(set-logic AUFBVFPDTNIRA)
(set-info :source |
Generated by: AdaCore
Generated on: 2020-03-06
Generator: SPARK
Application: Program verification for Ada
Target solver: Z3
|)
(set-info :license "https://creativecommons.org/licenses/by/4.0/")
(set-info :category "industrial")
(set-info :status unknown)
;;; generated by SMT-LIB2 driver
;;; SMT-LIB2 driver: bit-vectors, common part
;;; SMT-LIB2: integer arithmetic
(declare-sort string 0)

(declare-datatypes () ((tuple0 (Tuple0))))
(declare-sort us_private 0)

(declare-fun private__bool_eq (us_private us_private) Bool)

(declare-const us_null_ext__ us_private)

(declare-sort us_type_of_heap 0)

(declare-datatypes ()
((us_type_of_heap__ref
 (us_type_of_heap__refqtmk (us_type_of_heap__content us_type_of_heap)))))
(declare-sort us_image 0)

(declare-datatypes () ((int__ref (int__refqtmk (int__content Int)))))
(declare-datatypes () ((bool__ref (bool__refqtmk (bool__content Bool)))))
(declare-datatypes ()
((us_fixed__ref (us_fixed__refqtmk (us_fixed__content Int)))))
(declare-datatypes () ((real__ref (real__refqtmk (real__content Real)))))
(declare-datatypes ()
((us_private__ref (us_private__refqtmk (us_private__content us_private)))))
(define-fun int__ref___projection ((a int__ref)) Int (int__content a))

(define-fun us_fixed__ref___projection ((a us_fixed__ref)) Int (us_fixed__content
                                                               a))

(define-fun bool__ref___projection ((a bool__ref)) Bool (bool__content a))

(define-fun real__ref___projection ((a real__ref)) Real (real__content a))

(define-fun us_private__ref___projection ((a us_private__ref)) us_private 
  (us_private__content a))

(declare-const v Int)

(declare-const attr__ATTRIBUTE_ADDRESS Int)

(declare-const attr__ATTRIBUTE_ADDRESS1 Int)

(declare-const attr__ATTRIBUTE_ADDRESS2 Int)

(declare-sort mult_bit_boolean 0)

(define-fun pos_to_rep ((x Int)) Int (ite (= x 1) 43605 21930))

(define-fun in_range ((x Int)) Bool (and (<= 0 x) (<= x 1)))

(declare-fun attr__ATTRIBUTE_IMAGE (Int) us_image)

(declare-fun attr__ATTRIBUTE_VALUE__pre_check (us_image) Bool)

(declare-fun attr__ATTRIBUTE_VALUE (us_image) Int)

(declare-fun user_eq (mult_bit_boolean mult_bit_boolean) Bool)

(declare-const dummy mult_bit_boolean)

(declare-datatypes ()
((mult_bit_boolean__ref
 (mult_bit_boolean__refqtmk (mult_bit_boolean__content mult_bit_boolean)))))
(define-fun mult_bit_boolean__ref_mult_bit_boolean__content__projection ((a mult_bit_boolean__ref)) mult_bit_boolean 
  (mult_bit_boolean__content a))

(define-fun dynamic_invariant ((temp___expr_158 Int)
  (temp___is_init_154 Bool) (temp___skip_constant_155 Bool)
  (temp___do_toplevel_156 Bool)
  (temp___do_typ_inv_157 Bool)) Bool (=>
                                     (or (= temp___is_init_154 true)
                                     (<= 0 1)) (in_range temp___expr_158)))

;; Assume
  (assert (dynamic_invariant v true false true true))

(declare-const ret_val Int)

;; H
  (assert (= ret_val v))

;; Assume
  (assert (dynamic_invariant ret_val true false true true))

(declare-const spark__branch Bool)

;; H
  (assert (= spark__branch (ite (= ret_val 1) true false)))

;; H
  (assert (not (= spark__branch true)))

(declare-const spark__branch1 Bool)

;; H
  (assert (= spark__branch1 (ite (= ret_val 0) true false)))

;; H
  (assert (= spark__branch1 true))

(assert
;; defqtvc
 ;; File "no_optim.ads", line 5, characters 0-0
  (not (= ret_val 0)))
(check-sat)

(exit)
